dimension 2
units        real
atom_style    atomic
region        box block -500 500 -500 500 -0.025 0.025
create_box    1 box
create_atoms    1 single 0.0 0.0 0.0
mass        1 1.0

pair_style      none
velocity	all set 0.1 0 0 sum yes
thermo 1000000

fix        plum all plumed plumedfile plumedBias.dat
fix        1 all nve
run        10